
  32    4
  10   10   10   10

   0   0   0   0   0   1 2 
   3   1   1   0   1   1 3 
   8   0   4   2   6   1 4 
   9   8   5   5   0   1 5 
   9   3   3   4   0   1 6 
   6   0   5   3   3   1 7 
   7   5   0   4   1   1 8 
   7   0   5  10   6   1 9 
   7   0   2   3   2   1 10 
   2   0   7   3   2   1 11 
   9   0   3   4   2   2 17 12 
   2   3   0   3   7   2 31 13 
   2   0   3   5   9   1 14 
   4   4   9   0   3   1 15 
   5   4   1   4   0   1 16 
   1   4   5   0   5   1 18 
   8   0   5   2   6   1 18 
   1   3   4   4   0   1 19 
   5   5   4   4   0   1 20 
   9   2   0   4   3   1 21 
   7   0   6   4   3   1 22 
   4   1   0   6   4   1 23 
   9   0   2   7   3   1 24 
   9   4   0   6   5   1 25 
   4   4   0   5   2   2 30 26 
   6   5   0   2   6   1 27 
   3   3   3   0   5   1 28 
   9   2   2   4   0   1 29 
  10   8   5   2   0   1 32
   2   5   0   3   6   1 32
  10   6   0   1   2   1 32
   0   0   0   0   0   0 
